p cnf 15 27
-6 0
-14 10 14 0
8 -13 0
11 -4 -5 0
9 10 3 -4 0
-14 -13 5 7 0
11 -3 0
-4 13 14 15 0
4 0
-6 0
-15 10 12 6 0
8 -3 10 5 0
10 0
12 0
-10 0
2 -3 6 0
13 -10 0
9 1 0
11 0
1 0
3 -11 6 15 0
4 -3 0
8 -5 13 -1 0
-12 12 -1 -9 0
-1 -10 0
9 3 -10 15 0
5 -1 0
